151
0 42 38 10 69 48 30 57 58 149 
121 63 95 146 81 6 20 34 17 16 
9 124 24 23 40 105 64 3 129 116 
99 13 102 112 29 145 43 79 39 123 
106 52 93 5 44 114 72 73 136 18 
36 130 77 98 61 139 117 133 134 137 
101 75 31 100 141 4 109 91 147 68 
92 2 85 84 50 46 21 80 113 127 
140 82 49 11 41 104 143 125 1 56 
135 33 7 87 107 110 8 59 138 78 
62 12 76 150 108 32 74 22 45 122 
54 71 126 132 89 96 65 148 115 119 
111 86 25 27 51 118 37 26 55 67 
131 60 88 144 142 128 35 28 53 47 
94 83 70 15 97 90 120 14 103 19 
66 
